&CONTROL
  calculation = 'cp'
  title = 'relax mgo with pbe'
  dt =   3.0
  ekin_conv_thr =   1.0000000000d-07
  etot_conv_thr =   1.0000000000d-09
  iprint = 10
  isave = 100
  ndr = 51
  ndw = 52
  nstep = 20000
  outdir = './out/'
  prefix = 'mgo'
  pseudo_dir = './pseudo/'
  restart_mode = 'reset_counters' ! from_scratch, restart, reset_counters
  tprnfor = .true.
  tstress = .true.
!  verbosity = 'high'
/
&SYSTEM
!  ecutrho =   400
  ecutwfc =   100
  ibrav = 0
  nat  = 64
  ntyp = 2
  nr1b = 28
  nr2b = 28
  nr3b = 28
/
&ELECTRONS
  conv_thr =   1.0000000000d-08
  electron_damping =   0.05
  electron_dynamics = 'verlet'
  emass =   4.0000000000d+02
  ortho_eps =   1.0000000000d-11
  orthogonalization = 'ortho'
/
&IONS
  ion_dynamics = 'verlet'
  ion_velocities = 'random'
  tempw = 300
/
! &WANNIER
!    calwf  = 3   !  #Used with calwf=3, contains the wannier centers along a trajectory.
!    adapt  = .true.
!    nsteps = 40
!    nit    = 20    ! Number of iterations to do for Wannier convergence.
!   tolw=1.e-6
!   wfdt=4.e0 ! The minimum step size to take in the SD/CG direction (default 5.D0)
!   wf_q= 500
!   wf_friction=0.3e0 !# Damping coefficient for Damped-Dynamics. (default 0.3D0)
!    ibrav = 0, nat = 64, ntyp = 2
!/

CELL_PARAMETERS bohr
   16.076373057          0.0000000000000000    0.0000000000000000
    0.0000000000000000   16.076373057          0.0000000000000000
    0.0000000000000000    0.0000000000000000   16.076373057
ATOMIC_SPECIES
 Mg   24.30500   mg_pbe_v1.4.uspp.F.UPF
  O   15.99940   O.pbe-n-rrkjus_psl.1.0.0.UPF !O.pbe-n-kjpaw_psl.0.1.UPF
ATOMIC_POSITIONS crystal
 Mg   0.0000000000000000  0.0000000000000000  0.0000000000000000
 Mg   0.5000000000000000  0.0000000000000000  0.0000000000000000
 Mg   0.0000000000000000  0.5000000000000000  0.0000000000000000
 Mg   0.5000000000000000  0.5000000000000000  0.0000000000000000
 Mg   0.0000000000000000  0.0000000000000000  0.5000000000000000
 Mg   0.5000000000000000  0.0000000000000000  0.5000000000000000
 Mg   0.0000000000000000  0.5000000000000000  0.5000000000000000
 Mg   0.5000000000000000  0.5000000000000000  0.5000000000000000
 Mg   0.0000000000000000  0.2500000000000000  0.2500000000000000
 Mg   0.5000000000000000  0.2500000000000000  0.2500000000000000
 Mg   0.0000000000000000  0.7500000000000000  0.2500000000000000
 Mg   0.5000000000000000  0.7500000000000000  0.2500000000000000
 Mg   0.0000000000000000  0.2500000000000000  0.7500000000000000
 Mg   0.5000000000000000  0.2500000000000000  0.7500000000000000
 Mg   0.0000000000000000  0.7500000000000000  0.7500000000000000
 Mg   0.5000000000000000  0.7500000000000000  0.7500000000000000
 Mg   0.2500000000000000  0.0000000000000000  0.2500000000000000
 Mg   0.7500000000000000  0.0000000000000000  0.2500000000000000
 Mg   0.2500000000000000  0.5000000000000000  0.2500000000000000
 Mg   0.7500000000000000  0.5000000000000000  0.2500000000000000
 Mg   0.2500000000000000  0.0000000000000000  0.7500000000000000
 Mg   0.7500000000000000  0.0000000000000000  0.7500000000000000
 Mg   0.2500000000000000  0.5000000000000000  0.7500000000000000
 Mg   0.7500000000000000  0.5000000000000000  0.7500000000000000
 Mg   0.2500000000000000  0.2500000000000000  0.0000000000000000
 Mg   0.7500000000000000  0.2500000000000000  0.0000000000000000
 Mg   0.2500000000000000  0.7500000000000000  0.0000000000000000
 Mg   0.7500000000000000  0.7500000000000000  0.0000000000000000
 Mg   0.2500000000000000  0.2500000000000000  0.5000000000000000
 Mg   0.7500000000000000  0.2500000000000000  0.5000000000000000
 Mg   0.2500000000000000  0.7500000000000000  0.5000000000000000
 Mg   0.7500000000000000  0.7500000000000000  0.5000000000000000
  O   0.2500000000000000  0.0000000000000000  0.0000000000000000
  O   0.7500000000000000  0.0000000000000000  0.0000000000000000
  O   0.2500000000000000  0.5000000000000000  0.0000000000000000
  O   0.7500000000000000  0.5000000000000000  0.0000000000000000
  O   0.2500000000000000  0.0000000000000000  0.5000000000000000
  O   0.7500000000000000  0.0000000000000000  0.5000000000000000
  O   0.2500000000000000  0.5000000000000000  0.5000000000000000
  O   0.7500000000000000  0.5000000000000000  0.5000000000000000
  O   0.2500000000000000  0.2500000000000000  0.2500000000000000
  O   0.7500000000000000  0.2500000000000000  0.2500000000000000
  O   0.2500000000000000  0.7500000000000000  0.2500000000000000
  O   0.7500000000000000  0.7500000000000000  0.2500000000000000
  O   0.2500000000000000  0.2500000000000000  0.7500000000000000
  O   0.7500000000000000  0.2500000000000000  0.7500000000000000
  O   0.2500000000000000  0.7500000000000000  0.7500000000000000
  O   0.7500000000000000  0.7500000000000000  0.7500000000000000
  O   0.0000000000000000  0.0000000000000000  0.2500000000000000
  O   0.5000000000000000  0.0000000000000000  0.2500000000000000
  O   0.0000000000000000  0.5000000000000000  0.2500000000000000
  O   0.5000000000000000  0.5000000000000000  0.2500000000000000
  O   0.0000000000000000  0.0000000000000000  0.7500000000000000
  O   0.5000000000000000  0.0000000000000000  0.7500000000000000
  O   0.0000000000000000  0.5000000000000000  0.7500000000000000
  O   0.5000000000000000  0.5000000000000000  0.7500000000000000
  O   0.0000000000000000  0.2500000000000000  0.0000000000000000
  O   0.5000000000000000  0.2500000000000000  0.0000000000000000
  O   0.0000000000000000  0.7500000000000000  0.0000000000000000
  O   0.5000000000000000  0.7500000000000000  0.0000000000000000
  O   0.0000000000000000  0.2500000000000000  0.5000000000000000
  O   0.5000000000000000  0.2500000000000000  0.5000000000000000
  O   0.0000000000000000  0.7500000000000000  0.5000000000000000
  O   0.5000000000000000  0.7500000000000000  0.5000000000000000